#### Compression of two particles.
#-------------------------------------------------------------------------------
# Test case for compression with only two particles.
# Particles are inserted from coordination file.
# Elastic test case.
#-------------------------------------------------------------------------------
# file : import0.in
# date : 2016/02/22
# type : liggghts 3.3.1 input script
# auth : etienne.guesnet@simap.grenoble-inp.fr, robin.gibaud@simap.grenoble-inp.fr
#-------------------------------------------------------------------------------
####

# Standard input for granular simulation
atom_style	granular	# particle type
atom_modify	map array	# particule lookup strategy
newton		off		    # third law not applied, often faster
communicate	single vel yes	# MPI settings
units		si	    	# kg, m, s, K

# Boundary condition
boundary	f f f

# Some neighbours parameters
neighbor	0.01 bin	# extra distance added to the radius of the particle, defining the size of boxes used in neighbors searches
neigh_modify	delay 0	# defines neighbor list computation frequency

# Timestep
timestep	5e-2

# Import ASCII coordinates file
read_data import0.coord

# Define the interactions properties of material
fix		myFric all property/global coefficientFriction peratomtypepair 1 0
fix		myKn all property/global kn peratomtypepair 1 1e9	# normal rigidity
fix		myKt all property/global kt peratomtypepair 1 0		# tangential rigidity
fix		myCn all property/global gamman_abs peratomtypepair 1 0	# normal damping
fix		myCt all property/global gammat_abs peratomtypepair 1 0	# tangential damping

# interaction model selection in liggghts
pair_style gran model hooke/stiffness absolute_damping on limitForce off tangential_damping on
pair_coeff	* *	# inheritance from lammps

# Choose integration method
fix		myIntegration all nve

# Output particles data, in the directory 'post', with the file pattern coord* (* will be the time step)
dump		dmp all custom 1 post/coord* id x y z radius vx vy vz fx fy fz
dump_modify	dmp format          "%d %.16e %.16e %.16e %e %e %e %e %e %e %e"	# Choose precision of data

# Run simulation
run		50 upto
