#### Repulsion of two particles.
#-------------------------------------------------------------------------------
# An almost minimal example:
# (1) Create two indented particles.
# (2) Model normal elastic repulsion.
# (3) Output particles data for visualization.
#-------------------------------------------------------------------------------
# file : pair0.in
# date : 2016/02/19
# type : liggghts 3.3.1 input script
# auth : etienne.guesnet@simap.grenoble-inp.fr, robin.gibaud@simap.grenoble-inp.fr
#-------------------------------------------------------------------------------
####

# Standard settings for granular simulation
atom_style	granular	# particle type
atom_modify	map array	# particule lookup strategy
newton		off		# Newton's third law not applied, often faster
communicate	single vel yes	# MPI settings
units		si	    	# kg, m, s, K

# Neighbours search parameters
neighbor	0.01 bin	# extra distance added to the radius of the particle, defining the size of boxes used in neighbors searches
neigh_modify	delay 0		# defines neighbor list computation frequency

# Boundary conditions
boundary	f f f

# Timestep
timestep	5e-2

# Define the domain
region		myRegion block -1.5e-3 1.5e-3 -1.5e-3 1.5e-3 -1.5e-3 1.5e-3 units box	# define geometrical region
create_box	1 myRegion								# create simulation domain

# Define two particles (1)
create_atoms	1 single 0 0  0.40e-3		# insert particles one by one, defining their position
create_atoms	1 single 0 0 -0.40e-3
set		region myRegion diameter 1e-3	# overwrite the default properties of the particles
set		region myRegion density 1e18

# Define the interactions properties (2)
fix		myFric all property/global coefficientFriction peratomtypepair 1 0
fix		myKn all property/global kn peratomtypepair 1 1e9	# normal rigidity
fix		myKt all property/global kt peratomtypepair 1 0		# tangential rigidity
fix		myCn all property/global gamman_abs peratomtypepair 1 0	# normal damping
fix		myCt all property/global gammat_abs peratomtypepair 1 0	# tangential damping

pair_style	gran model hooke/stiffness absolute_damping on	# interaction model selection in liggghts
pair_coeff	* *						# inheritance from lammps

# Choose integration method
fix		myIntegration all nve

# Output particles data, in the directory 'post', with the file pattern coord* (* will be the time step) (3)
dump		myDump all custom 1 post/coord* id x y z radius vx vy vz fx fy fz

# Run simulation for 50 time steps
run		50 upto
